11
0 48 61 81 70 51 46 85 30 58 59
48 0 64 15 45 54 88 34 29 67 36
61 64 0 56 55 34 78 59 75 37 69
81 15 56 0 80 79 48 44 35 68 34
70 45 55 80 0 70 41 7 62 25 84
51 54 34 79 70 0 50 41 53 25 48
46 88 78 48 41 50 0 60 54 36 50
85 34 59 44 7 41 60 0 61 63 76
30 29 75 35 62 53 54 61 0 24 36
58 67 37 68 25 25 36 63 24 0 53
59 36 69 34 84 48 50 76 36 53 0
